NAME          
ROWS
 N  OBJ
 L  c1
 L  c2
COLUMNS
    MARKER    'MARKER'                 'INTORG'
    x[1]      c1        140
    x[1]      c2        404
    x[1]      OBJ       -921
    x[2]      c1        141
    x[2]      c2        886
    x[2]      OBJ       -799
    x[3]      c1        650
    x[3]      c2        994
    x[3]      OBJ       -820
    x[4]      c1        31
    x[4]      c2        708
    x[4]      OBJ       -718
    x[5]      c1        105
    x[5]      c2        878
    x[5]      OBJ       -782
    x[6]      c1        330
    x[6]      c2        431
    x[6]      OBJ       -881
    x[7]      c1        623
    x[7]      c2        585
    x[7]      OBJ       -975
    x[8]      c1        407
    x[8]      c2        502
    x[8]      OBJ       -956
    x[9]      c1        742
    x[9]      c2        237
    x[9]      OBJ       -92
    x[10]     c1        260
    x[10]     c2        543
    x[10]     OBJ       -526
    x[11]     c1        169
    x[11]     c2        239
    x[11]     OBJ       -227
    x[12]     c1        340
    x[12]     c2        718
    x[12]     OBJ       -183
    x[13]     c1        831
    x[13]     c2        807
    x[13]     OBJ       -812
    x[14]     c1        577
    x[14]     c2        352
    x[14]     OBJ       -934
    x[15]     c1        415
    x[15]     c2        723
    x[15]     OBJ       -471
    x[16]     c1        155
    x[16]     c2        381
    x[16]     OBJ       -995
    x[17]     c1        2
    x[17]     c2        368
    x[17]     OBJ       -223
    x[18]     c1        579
    x[18]     c2        466
    x[18]     OBJ       -407
    x[19]     c1        892
    x[19]     c2        620
    x[19]     OBJ       -289
    x[20]     c1        639
    x[20]     c2        441
    x[20]     OBJ       -299
    x[21]     c1        1000
    x[21]     c2        513
    x[21]     OBJ       -461
    x[22]     c1        922
    x[22]     c2        41
    x[22]     OBJ       -316
    x[23]     c1        935
    x[23]     c2        248
    x[23]     OBJ       -624
    x[24]     c1        29
    x[24]     c2        509
    x[24]     OBJ       -794
    x[25]     c1        774
    x[25]     c2        30
    x[25]     OBJ       -945
    x[26]     c1        522
    x[26]     c2        177
    x[26]     OBJ       -823
    x[27]     c1        180
    x[27]     c2        52
    x[27]     OBJ       -452
    x[28]     c1        67
    x[28]     c2        626
    x[28]     OBJ       -978
    x[29]     c1        685
    x[29]     c2        607
    x[29]     OBJ       -565
    x[30]     c1        760
    x[30]     c2        810
    x[30]     OBJ       -553
    x[31]     c1        590
    x[31]     c2        621
    x[31]     OBJ       -265
    x[32]     c1        624
    x[32]     c2        641
    x[32]     OBJ       -247
    x[33]     c1        465
    x[33]     c2        131
    x[33]     OBJ       -622
    x[34]     c1        235
    x[34]     c2        399
    x[34]     OBJ       -193
    x[35]     c1        798
    x[35]     c2        502
    x[35]     OBJ       -674
    x[36]     c1        985
    x[36]     c2        997
    x[36]     OBJ       -74
    x[37]     c1        124
    x[37]     c2        161
    x[37]     OBJ       -95
    x[38]     c1        634
    x[38]     c2        868
    x[38]     OBJ       -203
    x[39]     c1        860
    x[39]     c2        39
    x[39]     OBJ       -973
    x[40]     c1        754
    x[40]     c2        969
    x[40]     OBJ       -678
    x[41]     c1        324
    x[41]     c2        855
    x[41]     OBJ       -704
    x[42]     c1        909
    x[42]     c2        315
    x[42]     OBJ       -770
    x[43]     c1        407
    x[43]     c2        114
    x[43]     OBJ       -387
    x[44]     c1        463
    x[44]     c2        579
    x[44]     OBJ       -981
    x[45]     c1        822
    x[45]     c2        60
    x[45]     OBJ       -779
    x[46]     c1        183
    x[46]     c2        487
    x[46]     OBJ       -751
    x[47]     c1        36
    x[47]     c2        431
    x[47]     OBJ       -42
    x[48]     c1        318
    x[48]     c2        288
    x[48]     OBJ       -99
    x[49]     c1        588
    x[49]     c2        785
    x[49]     OBJ       -763
    x[50]     c1        488
    x[50]     c2        224
    x[50]     OBJ       -974
RHS
    rhs       c1        12254
    rhs       c2        12181
RANGES
BOUNDS
 BV bounds    x[1]
 BV bounds    x[2]
 BV bounds    x[3]
 BV bounds    x[4]
 BV bounds    x[5]
 BV bounds    x[6]
 BV bounds    x[7]
 BV bounds    x[8]
 BV bounds    x[9]
 BV bounds    x[10]
 BV bounds    x[11]
 BV bounds    x[12]
 BV bounds    x[13]
 BV bounds    x[14]
 BV bounds    x[15]
 BV bounds    x[16]
 BV bounds    x[17]
 BV bounds    x[18]
 BV bounds    x[19]
 BV bounds    x[20]
 BV bounds    x[21]
 BV bounds    x[22]
 BV bounds    x[23]
 BV bounds    x[24]
 BV bounds    x[25]
 BV bounds    x[26]
 BV bounds    x[27]
 BV bounds    x[28]
 BV bounds    x[29]
 BV bounds    x[30]
 BV bounds    x[31]
 BV bounds    x[32]
 BV bounds    x[33]
 BV bounds    x[34]
 BV bounds    x[35]
 BV bounds    x[36]
 BV bounds    x[37]
 BV bounds    x[38]
 BV bounds    x[39]
 BV bounds    x[40]
 BV bounds    x[41]
 BV bounds    x[42]
 BV bounds    x[43]
 BV bounds    x[44]
 BV bounds    x[45]
 BV bounds    x[46]
 BV bounds    x[47]
 BV bounds    x[48]
 BV bounds    x[49]
 BV bounds    x[50]
ENDATA
